; Options: -in -smt2
(set-option :produce-unsat-assumptions true)

(declare-fun start!2963 () Bool)

(assert start!2963)

(declare-fun b_free!29 () Bool)

(declare-fun b_next!29 () Bool)

(assert (=> start!2963 (= b_free!29 (not b_next!29))))

(declare-fun tp!44 () Bool)

(declare-fun b_and!159 () Bool)

(assert (=> start!2963 (= tp!44 b_and!159)))

(declare-fun b!16542 () Bool)

(declare-fun res!13090 () Bool)

(declare-fun e!9129 () Bool)

(assert (=> b!16542 (=> (not res!13090) (not e!9129))))

(declare-fun P!6 () Int)

(declare-datatypes ((array!1368 0))(
  ( (array!1369 (arr!601 (Array (_ BitVec 32) (_ BitVec 32))) (size!601 (_ BitVec 32))) )
))
(declare-fun a!13 () array!1368)

(declare-fun dynLambda!53 (Int (_ BitVec 32)) Bool)

(assert (=> b!16542 (= res!13090 (dynLambda!53 P!6 (select (arr!601 a!13) #b00000000000000000000000000000111)))))

(declare-fun b!16543 () Bool)

(declare-fun res!13100 () Bool)

(assert (=> b!16543 (=> (not res!13100) (not e!9129))))

(assert (=> b!16543 (= res!13100 (dynLambda!53 P!6 (select (arr!601 a!13) #b00000000000000000000000000001010)))))

(declare-fun b!16544 () Bool)

(declare-fun res!13096 () Bool)

(assert (=> b!16544 (=> (not res!13096) (not e!9129))))

(assert (=> b!16544 (= res!13096 (dynLambda!53 P!6 (select (arr!601 a!13) #b00000000000000000000000000000001)))))

(declare-fun b!16545 () Bool)

(declare-fun res!13098 () Bool)

(assert (=> b!16545 (=> (not res!13098) (not e!9129))))

(assert (=> b!16545 (= res!13098 (dynLambda!53 P!6 (select (arr!601 a!13) #b00000000000000000000000000000011)))))

(declare-fun b!16546 () Bool)

(assert (=> b!16546 (= e!9129 (bvsge #b00000000000000000000000000001011 (size!601 a!13)))))

(declare-fun b!16547 () Bool)

(declare-fun res!13101 () Bool)

(assert (=> b!16547 (=> (not res!13101) (not e!9129))))

(assert (=> b!16547 (= res!13101 (dynLambda!53 P!6 (select (arr!601 a!13) #b00000000000000000000000000000110)))))

(declare-fun b!16548 () Bool)

(declare-fun res!13099 () Bool)

(assert (=> b!16548 (=> (not res!13099) (not e!9129))))

(assert (=> b!16548 (= res!13099 (dynLambda!53 P!6 (select (arr!601 a!13) #b00000000000000000000000000001001)))))

(declare-fun b!16549 () Bool)

(declare-fun res!13092 () Bool)

(assert (=> b!16549 (=> (not res!13092) (not e!9129))))

(assert (=> b!16549 (= res!13092 (dynLambda!53 P!6 (select (arr!601 a!13) #b00000000000000000000000000001000)))))

(declare-fun b!16550 () Bool)

(declare-fun res!13094 () Bool)

(assert (=> b!16550 (=> (not res!13094) (not e!9129))))

(assert (=> b!16550 (= res!13094 (dynLambda!53 P!6 (select (arr!601 a!13) #b00000000000000000000000000000000)))))

(declare-fun res!13097 () Bool)

(assert (=> start!2963 (=> (not res!13097) (not e!9129))))

(assert (=> start!2963 (= res!13097 (= (size!601 a!13) #b00000000000000000000000000010100))))

(assert (=> start!2963 e!9129))

(declare-fun array_inv!549 (array!1368) Bool)

(assert (=> start!2963 (array_inv!549 a!13)))

(assert (=> start!2963 tp!44))

(declare-fun b!16551 () Bool)

(declare-fun res!13093 () Bool)

(assert (=> b!16551 (=> (not res!13093) (not e!9129))))

(assert (=> b!16551 (= res!13093 (dynLambda!53 P!6 (select (arr!601 a!13) #b00000000000000000000000000000100)))))

(declare-fun b!16552 () Bool)

(declare-fun res!13095 () Bool)

(assert (=> b!16552 (=> (not res!13095) (not e!9129))))

(assert (=> b!16552 (= res!13095 (dynLambda!53 P!6 (select (arr!601 a!13) #b00000000000000000000000000000010)))))

(declare-fun b!16553 () Bool)

(declare-fun res!13091 () Bool)

(assert (=> b!16553 (=> (not res!13091) (not e!9129))))

(assert (=> b!16553 (= res!13091 (dynLambda!53 P!6 (select (arr!601 a!13) #b00000000000000000000000000000101)))))

(assert (= (and start!2963 res!13097) b!16550))

(assert (= (and b!16550 res!13094) b!16544))

(assert (= (and b!16544 res!13096) b!16552))

(assert (= (and b!16552 res!13095) b!16545))

(assert (= (and b!16545 res!13098) b!16551))

(assert (= (and b!16551 res!13093) b!16553))

(assert (= (and b!16553 res!13091) b!16547))

(assert (= (and b!16547 res!13101) b!16542))

(assert (= (and b!16542 res!13090) b!16549))

(assert (= (and b!16549 res!13092) b!16548))

(assert (= (and b!16548 res!13099) b!16543))

(assert (= (and b!16543 res!13100) b!16546))

(declare-fun b_lambda!6711 () Bool)

(assert (=> (not b_lambda!6711) (not b!16550)))

(declare-fun t!321 () Bool)

(declare-fun tb!131 () Bool)

(assert (=> (and start!2963 (= P!6 P!6) t!321) tb!131))

(declare-fun result!131 () Bool)

(assert (=> tb!131 (= result!131 true)))

(assert (=> b!16550 t!321))

(declare-fun b_and!161 () Bool)

(assert (= b_and!159 (and (=> t!321 result!131) b_and!161)))

(declare-fun b_lambda!6713 () Bool)

(assert (=> (not b_lambda!6713) (not b!16547)))

(declare-fun t!323 () Bool)

(declare-fun tb!133 () Bool)

(assert (=> (and start!2963 (= P!6 P!6) t!323) tb!133))

(declare-fun result!133 () Bool)

(assert (=> tb!133 (= result!133 true)))

(assert (=> b!16547 t!323))

(declare-fun b_and!163 () Bool)

(assert (= b_and!161 (and (=> t!323 result!133) b_and!163)))

(declare-fun b_lambda!6715 () Bool)

(assert (=> (not b_lambda!6715) (not b!16551)))

(declare-fun t!325 () Bool)

(declare-fun tb!135 () Bool)

(assert (=> (and start!2963 (= P!6 P!6) t!325) tb!135))

(declare-fun result!135 () Bool)

(assert (=> tb!135 (= result!135 true)))

(assert (=> b!16551 t!325))

(declare-fun b_and!165 () Bool)

(assert (= b_and!163 (and (=> t!325 result!135) b_and!165)))

(declare-fun b_lambda!6717 () Bool)

(assert (=> (not b_lambda!6717) (not b!16549)))

(declare-fun t!327 () Bool)

(declare-fun tb!137 () Bool)

(assert (=> (and start!2963 (= P!6 P!6) t!327) tb!137))

(declare-fun result!137 () Bool)

(assert (=> tb!137 (= result!137 true)))

(assert (=> b!16549 t!327))

(declare-fun b_and!167 () Bool)

(assert (= b_and!165 (and (=> t!327 result!137) b_and!167)))

(declare-fun b_lambda!6719 () Bool)

(assert (=> (not b_lambda!6719) (not b!16543)))

(declare-fun t!329 () Bool)

(declare-fun tb!139 () Bool)

(assert (=> (and start!2963 (= P!6 P!6) t!329) tb!139))

(declare-fun result!139 () Bool)

(assert (=> tb!139 (= result!139 true)))

(assert (=> b!16543 t!329))

(declare-fun b_and!169 () Bool)

(assert (= b_and!167 (and (=> t!329 result!139) b_and!169)))

(declare-fun b_lambda!6721 () Bool)

(assert (=> (not b_lambda!6721) (not b!16544)))

(declare-fun t!331 () Bool)

(declare-fun tb!141 () Bool)

(assert (=> (and start!2963 (= P!6 P!6) t!331) tb!141))

(declare-fun result!141 () Bool)

(assert (=> tb!141 (= result!141 true)))

(assert (=> b!16544 t!331))

(declare-fun b_and!171 () Bool)

(assert (= b_and!169 (and (=> t!331 result!141) b_and!171)))

(declare-fun b_lambda!6723 () Bool)

(assert (=> (not b_lambda!6723) (not b!16548)))

(declare-fun t!333 () Bool)

(declare-fun tb!143 () Bool)

(assert (=> (and start!2963 (= P!6 P!6) t!333) tb!143))

(declare-fun result!143 () Bool)

(assert (=> tb!143 (= result!143 true)))

(assert (=> b!16548 t!333))

(declare-fun b_and!173 () Bool)

(assert (= b_and!171 (and (=> t!333 result!143) b_and!173)))

(declare-fun b_lambda!6725 () Bool)

(assert (=> (not b_lambda!6725) (not b!16553)))

(declare-fun t!335 () Bool)

(declare-fun tb!145 () Bool)

(assert (=> (and start!2963 (= P!6 P!6) t!335) tb!145))

(declare-fun result!145 () Bool)

(assert (=> tb!145 (= result!145 true)))

(assert (=> b!16553 t!335))

(declare-fun b_and!175 () Bool)

(assert (= b_and!173 (and (=> t!335 result!145) b_and!175)))

(declare-fun b_lambda!6727 () Bool)

(assert (=> (not b_lambda!6727) (not b!16542)))

(declare-fun t!337 () Bool)

(declare-fun tb!147 () Bool)

(assert (=> (and start!2963 (= P!6 P!6) t!337) tb!147))

(declare-fun result!147 () Bool)

(assert (=> tb!147 (= result!147 true)))

(assert (=> b!16542 t!337))

(declare-fun b_and!177 () Bool)

(assert (= b_and!175 (and (=> t!337 result!147) b_and!177)))

(declare-fun b_lambda!6729 () Bool)

(assert (=> (not b_lambda!6729) (not b!16545)))

(declare-fun t!339 () Bool)

(declare-fun tb!149 () Bool)

(assert (=> (and start!2963 (= P!6 P!6) t!339) tb!149))

(declare-fun result!149 () Bool)

(assert (=> tb!149 (= result!149 true)))

(assert (=> b!16545 t!339))

(declare-fun b_and!179 () Bool)

(assert (= b_and!177 (and (=> t!339 result!149) b_and!179)))

(declare-fun b_lambda!6731 () Bool)

(assert (=> (not b_lambda!6731) (not b!16552)))

(declare-fun t!341 () Bool)

(declare-fun tb!151 () Bool)

(assert (=> (and start!2963 (= P!6 P!6) t!341) tb!151))

(declare-fun result!151 () Bool)

(assert (=> tb!151 (= result!151 true)))

(assert (=> b!16552 t!341))

(declare-fun b_and!181 () Bool)

(assert (= b_and!179 (and (=> t!341 result!151) b_and!181)))

(declare-fun m!24771 () Bool)

(assert (=> b!16553 m!24771))

(assert (=> b!16553 m!24771))

(declare-fun m!24773 () Bool)

(assert (=> b!16553 m!24773))

(declare-fun m!24775 () Bool)

(assert (=> b!16550 m!24775))

(assert (=> b!16550 m!24775))

(declare-fun m!24777 () Bool)

(assert (=> b!16550 m!24777))

(declare-fun m!24779 () Bool)

(assert (=> b!16552 m!24779))

(assert (=> b!16552 m!24779))

(declare-fun m!24781 () Bool)

(assert (=> b!16552 m!24781))

(declare-fun m!24783 () Bool)

(assert (=> b!16548 m!24783))

(assert (=> b!16548 m!24783))

(declare-fun m!24785 () Bool)

(assert (=> b!16548 m!24785))

(declare-fun m!24787 () Bool)

(assert (=> b!16545 m!24787))

(assert (=> b!16545 m!24787))

(declare-fun m!24789 () Bool)

(assert (=> b!16545 m!24789))

(declare-fun m!24791 () Bool)

(assert (=> b!16549 m!24791))

(assert (=> b!16549 m!24791))

(declare-fun m!24793 () Bool)

(assert (=> b!16549 m!24793))

(declare-fun m!24795 () Bool)

(assert (=> start!2963 m!24795))

(declare-fun m!24797 () Bool)

(assert (=> b!16542 m!24797))

(assert (=> b!16542 m!24797))

(declare-fun m!24799 () Bool)

(assert (=> b!16542 m!24799))

(declare-fun m!24801 () Bool)

(assert (=> b!16551 m!24801))

(assert (=> b!16551 m!24801))

(declare-fun m!24803 () Bool)

(assert (=> b!16551 m!24803))

(declare-fun m!24805 () Bool)

(assert (=> b!16543 m!24805))

(assert (=> b!16543 m!24805))

(declare-fun m!24807 () Bool)

(assert (=> b!16543 m!24807))

(declare-fun m!24809 () Bool)

(assert (=> b!16544 m!24809))

(assert (=> b!16544 m!24809))

(declare-fun m!24811 () Bool)

(assert (=> b!16544 m!24811))

(declare-fun m!24813 () Bool)

(assert (=> b!16547 m!24813))

(assert (=> b!16547 m!24813))

(declare-fun m!24815 () Bool)

(assert (=> b!16547 m!24815))

(check-sat (not b_lambda!6729) (not b_lambda!6727) b_and!181 (not b_lambda!6721) (not b_next!29) (not b_lambda!6715) (not b_lambda!6725) (not b_lambda!6731) (not b_lambda!6711) (not b_lambda!6719) (not b_lambda!6723) (not start!2963) (not b_lambda!6717) (not b_lambda!6713))
(check-sat b_and!181 (not b_next!29))
